NAME : rand10
COMMENT : Drilling problem (Reinelt)
TYPE : TSP
DIMENSION : 10
EDGE_WEIGHT_TYPE : EUC_2D
Ville	x		y
1	0.330092	0.450447
2	0.636404	0.303392
3	0.536543	0.545446
4	0.636231	0.105968
5	0.572470	0.073720
6	0.241302	0.641598
7	0.205793	0.180839
8	0.749624	0.212786
9	0.994238	0.589295
10	0.682017	0.001644	